! Solving for graph /home/truongxuanhieu/CPLEX-CP-for-MinSpanLabeling/benchmarks/abp/T-dwt__592.mtx.rnd
! Target value is set to 113
! Lower bound is set to 114
! Upper bound is set to 592
! Time limit is set to 1800
! Vertices mode is set to Has hole
 ! --------------------------------------------------- CP Optimizer 22.2.0.0 --
 ! Minimization problem - 593 variables, 2849 constraints, 1 phase
 ! TimeLimit            = 1800
 ! LogVerbosity         = Terse
 ! Initial process time : 0.04s (0.04s extraction + 0.00s propagation)
 !  . Log search space  : 5459.9 (before), 5459.9 (after)
 !  . Memory usage      : 1.2 MB (before), 1.2 MB (after)
 ! Using parallel search with 8 workers.
 ! ----------------------------------------------------------------------------
 !          Best Branches  Non-fixed    W       Branch decision
                        0        593                 -
 + New bound is 114
                        2        592    1   F     1 != _int423
 + New bound is 115
 *           453      595  0.17s        1      (gap is 74.61%)
 *           452     4497  0.57s        3      (gap is 74.56%)
 *           340    11539  0.99s        1      (gap is 66.18%)
             340    37507        591    4   F        -
 + New bound is 123 (gap is 63.82%)
             340    37507        591    4   F        -
 + New bound is 124 (gap is 63.53%)
             340    29371          1    7   F        -
 + New bound is 125 (gap is 63.24%)
             340    37666        591    1   F        -
 + New bound is 126 (gap is 62.94%)
             340    42318        589    1   F        -
 + New bound is 134 (gap is 60.59%)
             340    42318        589    1   F        -
 + New bound is 135 (gap is 60.29%)
             340    46533          1    2   F        -
 + New bound is 136 (gap is 60.00%)
             340    57314        483    4   F        -
 + New bound is 137 (gap is 59.71%)
             340    51635        582    1   F        -
 + New bound is 138 (gap is 59.41%)
             340    68041        590    4   F        -
 + New bound is 139 (gap is 59.12%)
             340    68041        590    4   F        -
 + New bound is 147 (gap is 56.76%)
             340    68041        590    4   F        -
 + New bound is 148 (gap is 56.47%)
             340    58923        584    1   F        -
 + New bound is 149 (gap is 56.18%)
             340    56007        591    7   F        -
 + New bound is 150 (gap is 55.88%)
             340    70873        587    2   F        -
 + New bound is 151 (gap is 55.59%)
 ! Time = 10.72s, Average fail depth = 183, Memory usage = 56.0 MB
 ! Current bound is 151 (gap is 55.59%)
 !          Best Branches  Non-fixed    W       Branch decision
             340     114k        393    4   F        -
 + New bound is 152 (gap is 55.29%)
             340     128k        591    4   F        -
 + New bound is 159 (gap is 53.24%)
             340     128k        591    4   F        -
 + New bound is 160 (gap is 52.94%)
             340     125k        551    1   F        -
 + New bound is 161 (gap is 52.65%)
             340    78482        583    2   F        -
 + New bound is 162 (gap is 52.35%)
             340     139k        591    1   F        -
 + New bound is 163 (gap is 52.06%)
             340    86778        400    7   F        -
 + New bound is 164 (gap is 51.76%)
             340     140k        589    1   F        -
 + New bound is 165 (gap is 51.47%)
             340     142k        449    1            -
 + New bound is 340 (gap is 0.00%)
 ! ----------------------------------------------------------------------------
 ! Search completed, 3 solutions found.
 ! Best objective         : 340 (optimal - effective tol. is 0)
 ! Best bound             : 340
 ! ----------------------------------------------------------------------------
 ! Number of branches     : 1352531
 ! Number of fails        : 651666
 ! Total memory usage     : 70.3 MB (69.1 MB CP Optimizer + 1.2 MB Concert)
 ! Time spent in solve    : 16.11s (16.08s engine + 0.04s extraction)
 ! Search speed (br. / s) : 84165.0
 ! ----------------------------------------------------------------------------
! --------------------------------------------------------
! Best span = 340
! Labeling: 227 114 340 114 114 1 340 227 340 340 227 227 340 1 114 114 1 227 227 114 340 340 1 114 340 340 114 114 340 114 1 227 340 227 1 340 114 227 1 114 1 1 227 227 1 227 114 340 1 1 1 1 1 340 227 1 340 227 227 1 340 114 1 1 1 227 114 114 1 1 340 227 227 114 1 227 340 227 1 340 114 227 114 114 1 1 340 340 227 227 227 340 114 114 340 1 227 340 114 227 227 340 1 227 114 227 114 227 340 227 1 1 227 1 114 340 340 340 1 227 340 114 227 227 340 114 114 1 1 340 1 340 340 114 114 114 227 114 340 227 227 114 340 114 1 1 114 114 227 227 340 1 340 1 114 114 1 1 1 1 227 114 1 114 1 227 340 1 340 114 1 1 227 114 227 340 340 340 114 1 1 227 114 227 1 1 1 114 227 227 227 227 340 114 340 227 1 340 340 114 340 114 114 114 227 114 340 227 340 114 227 114 340 227 340 1 227 114 340 340 1 114 227 1 114 1 114 114 1 340 340 114 114 227 1 227 227 1 114 1 1 340 340 114 340 1 1 227 1 114 114 227 227 227 227 114 1 227 340 1 1 1 340 1 114 1 114 227 1 227 114 114 227 340 114 227 227 1 340 114 340 340 114 227 1 227 340 227 340 1 114 114 340 340 1 340 227 114 227 1 227 114 227 1 227 1 1 1 227 227 340 340 114 340 340 114 340 340 1 340 1 1 340 114 227 114 227 1 1 114 340 114 1 1 227 1 340 227 227 114 227 1 1 340 340 1 114 340 1 227 1 340 227 340 114 114 1 1 340 340 227 227 340 227 1 1 227 227 1 340 227 340 227 227 340 340 227 227 340 340 114 1 1 114 114 114 340 227 1 114 340 1 340 340 1 227 340 227 227 114 1 340 340 227 340 227 227 114 340 114 340 340 114 340 227 1 227 114 1 227 340 114 114 340 1 1 1 114 1 340 340 114 340 114 227 227 1 1 340 114 227 340 340 340 227 227 1 114 114 227 227 1 227 1 227 114 114 340 1 340 1 114 227 1 114 1 114 227 227 227 340 340 1 340 340 227 227 340 1 227 1 227 340 340 114 1 114 114 1 1 114 1 114 114 1 114 340 114 340 227 340 114 114 114 114 227 114 227 114 114 340 340 114 340 340 1 114 114 114 227 1 1 114 227 1 340 227 340 114 114 227 114 340 1 114 227 1 1 340 114 227 227 114 1 1 1 340 114 114 114 114 227 114 1 340 340 227 227 114 114 114 1 340 340 1 227 340 340 340 1 114 340 114 114 340 340 227 340 340 227 1 227 340 227 1 340 227 114 227 1 227 227 
! -------------------------------------------------------- 
